4 11 50 1 2
0 200
 1 35.00 35.00 0.00 0.00 0.00 0 0 0 230
 2 41.00 49.00 10.00 10.00 5.00 1 1 1 133 198
 3 35.00 17.00 10.00 7.00 2.00 1 1 1 22 87
 4 55.00 45.00 10.00 13.00 16.00 1 1 1 98 143
 5 55.00 20.00 10.00 19.00 1.00 1 1 1 123 184
 6 15.00 30.00 10.00 26.00 7.00 1 1 1 20 93
 7 25.00 30.00 10.00 3.00 9.00 1 1 1 76 131
 8 20.00 50.00 10.00 5.00 7.00 1 1 1 61 110
 9 10.00 43.00 10.00 9.00 29.00 1 1 1 75 124
 10 55.00 60.00 10.00 16.00 16.00 1 1 1 74 129
 11 30.00 60.00 10.00 16.00 5.00 1 1 1 107 150
 12 20.00 65.00 10.00 12.00 17.00 1 1 1 42 101
 13 50.00 35.00 10.00 19.00 9.00 1 1 1 38 97
 14 30.00 25.00 10.00 23.00 19.00 1 1 1 131 196
 15 15.00 10.00 10.00 20.00 6.00 1 1 1 32 114
 16 30.00 5.00 10.00 8.00 17.00 1 1 1 35 96
 17 10.00 20.00 10.00 19.00 5.00 1 1 1 52 107
 18 5.00 30.00 10.00 2.00 9.00 1 1 1 124 189
 19 20.00 40.00 10.00 12.00 16.00 1 1 1 69 114
 20 15.00 60.00 10.00 17.00 11.00 1 1 1 52 109
 21 45.00 65.00 10.00 9.00 3.00 1 1 1 105 156
 22 45.00 20.00 10.00 11.00 8.00 1 1 1 37 96
 23 45.00 10.00 10.00 18.00 16.00 1 1 1 76 127
 24 55.00 5.00 10.00 29.00 18.00 1 1 1 43 102
 25 65.00 35.00 10.00 3.00 16.00 1 1 1 124 190
 26 65.00 20.00 10.00 6.00 27.00 1 1 1 121 186
 27 45.00 30.00 10.00 17.00 23.00 1 1 1 112 161
 28 35.00 40.00 10.00 16.00 19.00 1 1 1 8 75
 29 41.00 37.00 10.00 16.00 9.00 1 1 1 11 76
 30 64.00 42.00 10.00 9.00 8.00 1 1 1 37 98
 31 40.00 60.00 10.00 21.00 36.00 1 1 1 49 102
 32 31.00 52.00 10.00 27.00 18.00 1 1 1 24 85
 33 35.00 69.00 10.00 23.00 31.00 1 1 1 116 175
 34 53.00 52.00 10.00 11.00 3.00 1 1 1 24 92
 35 65.00 55.00 10.00 14.00 19.00 1 1 1 96 147
 36 63.00 65.00 10.00 8.00 26.00 1 1 1 116 178
 37 2.00 60.00 10.00 5.00 11.00 1 1 1 41 112
 38 20.00 20.00 10.00 8.00 5.00 1 1 1 113 164
 39 5.00 5.00 10.00 16.00 14.00 1 1 1 60 115
 40 60.00 12.00 10.00 31.00 30.00 1 1 1 33 110
 41 40.00 25.00 10.00 9.00 12.00 1 1 1 65 114
 42 42.00 7.00 10.00 5.00 12.00 1 1 1 72 131
 43 24.00 12.00 10.00 5.00 23.00 1 1 1 25 91
 44 23.00 3.00 10.00 7.00 21.00 1 1 1 111 162
 45 11.00 14.00 10.00 18.00 20.00 1 1 1 45 102
 46 6.00 38.00 10.00 16.00 10.00 1 1 1 29 99
 47 2.00 48.00 10.00 1.00 13.00 1 1 1 92 151
 48 8.00 56.00 10.00 27.00 27.00 1 1 1 34 105
 49 13.00 52.00 10.00 36.00 16.00 1 1 1 128 192
 50 6.00 68.00 10.00 30.00 13.00 1 1 1 93 132
 51 47.00 47.00 10.00 13.00 8.00 1 1 1 102 155
